n = 15;
m = 53;

max_len = 6;
word_lens = [ 4, 4, 4, 4, 4, 4, 4, 4, 4, 4, 4, 4, 4, 4, 4, 5, 5, 5, 5, 5, 5, 5, 5, 5, 5, 5, 5, 5, 5, 5, 5, 5, 6, 6, 6, 6, 6, 6, 6, 6, 6, 6, 6, 6, 6, 6, 6, 6, 6, 6, 6, 6, 6 ];
pivot_inds = [ 1, 2, 3, 3, 3, 1, 2, 1, 2, 3, 1, 1, 1, 1, 1, 3, 3, 2, 4, 2, 2, 2, 2, 1, 2, 1, 1, 1, 3, 4, 4, 1, 2, 1, 4, 4, 3, 1, 3, 4, 3, 4, 2, 2, 1, 1, 3, 1, 0, 1, 2, 1, 5 ];
words = [| H, E, R, E, Z, Z | P, L, A, N, Z, Z | H, O, L, D, Z, Z | H, O, S, T, Z, Z | T, I, M, E, Z, Z | M, E, E, T, Z, Z | A, P, E, C, Z, Z | W, E, E, K, Z, Z | W, O, R, D, Z, Z | D, A, T, E, Z, Z | D, E, A, L, Z, Z | H, A, L, T, Z, Z | H, E, L, D, Z, Z | W, A, I, T, Z, Z | N, E, X, T, Z, Z | P, O, I, N, T, Z | A, G, R, E, E, Z | P, R, E, S, S, Z | I, S, S, U, E, Z | E, V, E, N, T, Z | M, O, N, T, H, Z | F, O, R, U, M, Z | D, R, A, F, T, Z | B, E, G, I, N, Z | C, L, A, S, S, Z | C, E, A, S, E, Z | T, A, L, K, S, Z | D, E, L, A, Y, Z | T, O, D, A, Y, Z | V, I, S, I, T, Z | T, R, U, C, E, Z | R, E, N, E, W, Z | S, P, E, E, C, H | S, E, N, I, O, R | F, R, I, D, A, Y | C, A, N, C, E, L | A, T, T, E, N, D | M, A, J, O, R, S | A, C, C, E, P, T | M, O, N, D, A, Y | U, N, L, E, S, S | S, U, N, D, A, Y | F, R, E, E, Z, E | M, I, N, O, R, S | R, E, S, U, M, E | D, E, C, I, D, E | E, X, T, E, N, D | R, E, O, P, E, N | E, N, D, I, N, G | R, E, T, U, R, N | A, G, E, N, D, A | C, A, U, C, U, S | N, O, T, I, C, E |];

pos_var_strat = first_fail;
pos_val_strat = indomain_median;
